benchmarks_vrp/CMT11/fixed_c/CMT11_0.vrp
NAME: CMT11_0
TYPE: CVRP
COMMENT: 1042.11 - Cluster Nr.0
DIMENSION: 10
CAPACITY: 200
EDGE_WEIGHT_TYPE: EUC_2D
NODE_COORD_TYPE: TWOD_COORDS
NODE_COORD_SECTION: 
3 36 3
7 35 7
1 10 45
10 47 6
2 39 3
6 46 9
8 40 5
5 35 5
9 34 6
4 34 9
DEPOT_SECTION: 
1
-1
DEMAND_SECTION: 
2 12
7 5
9 15
4 11
10 17
3 18
8 13
6 19
1 0
5 15
EOF
