benchmarks_vrp/CMT11/fixed_c/CMT11_0.tour
NAME: CMT11_0 solution
TYPE: TOUR
TOUR_SECTION:
1 4 7 9 5 3 2 8 10 6 -1
-1
EOF